55063
31, 1, 27, 33, 42, 45, 52, 15, 36, 46, 39, 16, 10, 22, 29, 21, 23, 17, 48, 49, 19, 44, 8, 38, 32, 41, 51, 13, 5, 35, 24, 50, 37, 20, 7, 40, 43, 3, 6, 28, 55, 26, 53, 34, 54, 47, 30, 4, 18, 12, 9, 14, 2, 11, 25
